nNurses = 103;
nHours = 36;
minHours = 3;
maxHours = 15;
maxConsec = 11;
maxPresence = 25;
demand = [8, 7, 12, 8, 8, 7, 8, 11, 14, 11, 16, 13, 12, 12, 8, 13, 12, 8, 7, 9, 7, 6, 6, 8, 7, 9, 10, 10, 14, 17, 18, 17, 18, 15, 10, 9];
